
--- Job LAB2_MOEG.gms Start 03/20/22 14:19:18 38.1.0 a1a3b545 WEX-WEI x86 64bit/MS Windows
--- Applying:
    C:\GAMS\38\gmsprmNT.txt
--- GAMS Parameters defined
    Input C:\Users\sebss\Escritorio\Programacion\GAMS\Lab2\LAB2_MOEG.gms
    PageSize 0
    ScrDir C:\Users\sebss\Escritorio\Programacion\GAMS\Lab2\225a\
    SysDir C:\GAMS\38\
    LogOption 3
    ErrMsg 1
    ErrorLog 99
    IDE 1
    LstTitleLeftAligned 1
Licensee: GAMS Demo license for Sebastian Ramiro EntrerriG220207|0002CO-GEN
          Universidad Rey Juan Carlos, Spain                       DL059758
          C:\Users\sebss\OneDrive\Documentos\GAMS\gamslice.txt
          sr.entrerrios.2020@alumnos.urjc.es, Sebastian Ramiro Entrerrios G
          Demo license for demonstration and instructional purposes only
Processor information: 1 socket(s), 6 core(s), and 12 thread(s) available
GAMS 38.1.0   Copyright (C) 1987-2022 GAMS Development. All rights reserved
--- Starting compilation
--- LAB2_MOEG.gms(96) 3 Mb
--- Starting execution: elapsed 0:00:00.006
--- Generating MIP model LAB2_MOEG
--- LAB2_MOEG.gms(95) 4 Mb
---   79 rows  37 columns  199 non-zeroes
---   36 discrete-columns
--- Executing CPLEX (Solvelink=2): elapsed 0:00:00.075

IBM ILOG CPLEX   38.1.0 a1a3b545 Jan 31, 2022          WEI x86 64bit/MS Window

--- *** This solver runs with a demo license. No commercial use.
--- GMO setup time: 0.00s
--- GMO memory 0.51 Mb (peak 0.51 Mb)
--- Dictionary memory 0.00 Mb
--- Cplex 20.1.0.1 link memory 0.00 Mb (peak 0.01 Mb)
--- Starting Cplex

Version identifier: 20.1.0.1 | 2021-04-07 | 3a818710c
CPXPARAM_Advance                                 0
CPXPARAM_Threads                                 1
CPXPARAM_MIP_Display                             4
CPXPARAM_MIP_Pool_Capacity                       0
CPXPARAM_MIP_Tolerances_AbsMIPGap                0
Generic callback                                 0x50
Tried aggregator 2 times.
MIP Presolve eliminated 49 rows and 1 columns.
MIP Presolve modified 13 coefficients.
Aggregator did 1 substitutions.
Reduced MIP has 28 rows, 35 columns, and 91 nonzeros.
Reduced MIP has 0 binaries, 35 generals, 0 SOSs, and 0 indicators.
Presolve time = 0.00 sec. (0.11 ticks)
Found incumbent of value 249104.000000 after 0.02 sec. (0.20 ticks)
Tried aggregator 1 time.
Detecting symmetries...
Reduced MIP has 28 rows, 35 columns, and 91 nonzeros.
Reduced MIP has 0 binaries, 35 generals, 0 SOSs, and 0 indicators.
Presolve time = 0.00 sec. (0.05 ticks)
MIP emphasis: balance optimality and feasibility.
MIP search method: dynamic search.
Parallel mode: none, using 1 thread.
Tried aggregator 1 time.
No LP presolve or aggregator reductions.
Presolve time = 0.00 sec. (0.01 ticks)
Initializing dual steep norms . . .

Iteration log . . .
Iteration:     1   Dual objective     =        663713.000000
Root relaxation solution time = 0.02 sec. (0.07 ticks)

        Nodes                                         Cuts/
   Node  Left     Objective  IInf  Best Integer    Best Bound    ItCnt     Gap

*     0+    0                       249104.0000   803440.0000           222.53%
Found incumbent of value 249104.000000 after 0.03 sec. (0.34 ticks)
      0     0   310171.5000    18   249104.0000   310171.5000       19   24.51%
      0     0   310149.0000    11   249104.0000      Fract: 3       24   24.51%
*     0+    0                       310147.0000   310149.0000             0.00%
Found incumbent of value 310147.000000 after 0.03 sec. (0.54 ticks)

Gomory fractional cuts applied:  2

Root node processing (before b&c):
  Real time             =    0.03 sec. (0.54 ticks)
Sequential b&c:
  Real time             =    0.00 sec. (0.00 ticks)
                          ------------
Total (root+branch&cut) =    0.03 sec. (0.54 ticks)

--- MIP status (102): integer optimal, tolerance.
--- Cplex Time: 0.05sec (det. 0.54 ticks)

--- Fixing integer variables and solving final LP...

Version identifier: 20.1.0.1 | 2021-04-07 | 3a818710c
CPXPARAM_Advance                                 2
CPXPARAM_Threads                                 1
CPXPARAM_MIP_Display                             4
CPXPARAM_MIP_Pool_Capacity                       0
CPXPARAM_MIP_Tolerances_AbsMIPGap                0
Tried aggregator 1 time.
LP Presolve eliminated 78 rows and 37 columns.
All rows and columns eliminated.
Presolve time = 0.02 sec. (0.03 ticks)

--- Fixed MIP status (1): optimal.
--- Cplex Time: 0.02sec (det. 0.05 ticks)


Solution satisfies tolerances
MIP Solution:       310147.000000    (24 iterations, 0 nodes)
Final Solve:        310147.000000    (0 iterations)

Best possible:      310149.000000
Absolute gap:            2.000000
Relative gap:            0.000006

--- Reading solution for model LAB2_MOEG
*** Status: Normal completion
--- Job LAB2_MOEG.gms Stop 03/20/22 14:19:18 elapsed 0:00:00.291
